c Optimization.jl
c  Problem  1 input parameters
c  ---------------------------
c   Number of nodes:            52
c   Source nodes:               4
c   Sink nodes:                 3
c   Number of arcs:             1024
c   Minimum arc cost:           1.0
c   Maximum arc cost:           62.0
c   Total supply:               589.0
c   Minimum arc capacity:       54.0
c   Maximum arc capacity:       289.0
c
c  *** Minimum cost flow ***
c
p min 52 1024
n 1 219.0
n 2 72.0
n 3 9.0
n 4 289.0
n 50 -212.0
n 51 -337.0
n 52 -40.0
a 1 49 0.0 219.0 43.0
a 1 40 0.0 71.0 16.0
a 1 44 0.0 95.0 29.0
a 1 51 0.0 63.0 52.0
a 1 43 0.0 58.0 40.0
a 1 13 0.0 64.0 35.0
a 1 28 0.0 103.0 26.0
a 1 7 0.0 102.0 13.0
a 1 31 0.0 105.0 21.0
a 1 18 0.0 64.0 37.0
a 1 27 0.0 66.0 57.0
a 1 50 0.0 121.0 9.0
a 1 41 0.0 108.0 50.0
a 1 19 0.0 90.0 1.0
a 1 21 0.0 63.0 6.0
a 1 36 0.0 76.0 59.0
a 1 26 0.0 140.0 26.0
a 1 8 0.0 63.0 3.0
a 6 33 0.0 219.0 55.0
a 6 32 0.0 97.0 39.0
a 6 40 0.0 113.0 38.0
a 6 39 0.0 82.0 26.0
a 6 15 0.0 72.0 20.0
a 6 51 0.0 81.0 41.0
a 6 43 0.0 58.0 20.0
a 6 28 0.0 123.0 16.0
a 6 26 0.0 83.0 1.0
a 6 8 0.0 56.0 57.0
a 6 19 0.0 149.0 39.0
a 6 14 0.0 101.0 51.0
a 6 20 0.0 63.0 16.0
a 6 36 0.0 93.0 2.0
a 6 38 0.0 60.0 43.0
a 6 30 0.0 139.0 12.0
a 6 47 0.0 76.0 13.0
a 6 42 0.0 98.0 40.0
a 6 22 0.0 90.0 50.0
a 6 52 0.0 123.0 62.0
a 6 37 0.0 74.0 51.0
a 6 17 0.0 133.0 37.0
a 6 5 0.0 135.0 45.0
a 6 50 0.0 87.0 7.0
a 6 34 0.0 122.0 55.0
a 6 44 0.0 113.0 42.0
a 6 24 0.0 120.0 61.0
a 6 35 0.0 103.0 40.0
a 6 12 0.0 97.0 35.0
a 6 41 0.0 90.0 6.0
a 6 25 0.0 148.0 12.0
a 6 16 0.0 103.0 46.0
a 6 49 0.0 89.0 7.0
a 6 21 0.0 147.0 18.0
a 8 29 0.0 219.0 43.0
a 8 49 0.0 81.0 12.0
a 8 21 0.0 145.0 16.0
a 8 22 0.0 85.0 42.0
a 8 48 0.0 54.0 28.0
a 8 16 0.0 135.0 52.0
a 8 15 0.0 86.0 6.0
a 8 52 0.0 71.0 41.0
a 8 35 0.0 89.0 28.0
a 8 9 0.0 70.0 24.0
a 8 31 0.0 119.0 31.0
a 8 40 0.0 151.0 35.0
a 8 33 0.0 135.0 22.0
a 8 38 0.0 110.0 16.0
a 8 44 0.0 113.0 52.0
a 8 13 0.0 128.0 51.0
a 8 46 0.0 88.0 51.0
a 8 42 0.0 121.0 60.0
a 8 50 0.0 59.0 49.0
a 8 11 0.0 95.0 27.0
a 8 20 0.0 125.0 21.0
a 8 19 0.0 106.0 55.0
a 8 26 0.0 90.0 21.0
a 12 8 0.0 219.0 33.0
a 12 51 0.0 219.0 36.0
a 12 37 0.0 112.0 37.0
a 12 29 0.0 129.0 12.0
a 12 21 0.0 112.0 23.0
a 12 11 0.0 150.0 27.0
a 12 6 0.0 88.0 30.0
a 12 40 0.0 87.0 31.0
a 12 5 0.0 149.0 44.0
a 12 46 0.0 86.0 16.0
a 12 17 0.0 54.0 7.0
a 12 24 0.0 101.0 13.0
a 29 50 0.0 219.0 46.0
a 29 34 0.0 66.0 56.0
a 29 20 0.0 144.0 10.0
a 29 19 0.0 135.0 3.0
a 29 35 0.0 102.0 14.0
a 29 51 0.0 98.0 15.0
a 29 22 0.0 96.0 50.0
a 29 36 0.0 122.0 33.0
a 29 25 0.0 80.0 42.0
a 29 23 0.0 121.0 34.0
a 29 17 0.0 145.0 24.0
a 29 31 0.0 76.0 39.0
a 29 11 0.0 126.0 16.0
a 29 7 0.0 106.0 34.0
a 29 14 0.0 111.0 32.0
a 29 12 0.0 63.0 30.0
a 29 18 0.0 70.0 7.0
a 29 24 0.0 64.0 11.0
a 29 48 0.0 77.0 47.0
a 31 32 0.0 219.0 42.0
a 31 6 0.0 120.0 57.0
a 31 36 0.0 88.0 12.0
a 31 23 0.0 101.0 12.0
a 31 8 0.0 77.0 25.0
a 31 43 0.0 131.0 29.0
a 31 25 0.0 77.0 49.0
a 32 6 0.0 219.0 43.0
a 32 50 0.0 124.0 33.0
a 32 16 0.0 88.0 32.0
a 32 28 0.0 74.0 10.0
a 32 10 0.0 63.0 48.0
a 32 15 0.0 145.0 40.0
a 32 36 0.0 98.0 8.0
a 32 42 0.0 103.0 27.0
a 32 33 0.0 60.0 62.0
a 32 8 0.0 84.0 60.0
a 32 20 0.0 89.0 14.0
a 32 24 0.0 91.0 38.0
a 32 21 0.0 105.0 18.0
a 32 38 0.0 68.0 50.0
a 32 29 0.0 96.0 41.0
a 32 39 0.0 107.0 50.0
a 32 52 0.0 55.0 15.0
a 32 37 0.0 67.0 48.0
a 32 13 0.0 87.0 50.0
a 32 41 0.0 54.0 10.0
a 32 34 0.0 146.0 10.0
a 32 27 0.0 70.0 42.0
a 32 31 0.0 93.0 30.0
a 32 51 0.0 106.0 7.0
a 32 40 0.0 112.0 28.0
a 32 25 0.0 113.0 7.0
a 32 43 0.0 134.0 58.0
a 32 23 0.0 121.0 21.0
a 32 14 0.0 93.0 34.0
a 32 11 0.0 126.0 24.0
a 32 17 0.0 113.0 6.0
a 32 30 0.0 77.0 48.0
a 32 5 0.0 132.0 51.0
a 32 12 0.0 97.0 45.0
a 32 22 0.0 74.0 27.0
a 33 39 0.0 219.0 2.0
a 33 25 0.0 106.0 12.0
a 33 24 0.0 148.0 62.0
a 39 12 0.0 219.0 9.0
a 39 31 0.0 145.0 26.0
a 39 16 0.0 141.0 57.0
a 39 45 0.0 142.0 56.0
a 49 31 0.0 219.0 53.0
a 49 15 0.0 76.0 60.0
a 49 12 0.0 75.0 1.0
a 49 35 0.0 69.0 13.0
a 49 22 0.0 89.0 24.0
a 49 48 0.0 120.0 53.0
a 49 30 0.0 129.0 35.0
a 49 17 0.0 142.0 5.0
a 49 39 0.0 66.0 34.0
a 49 52 0.0 66.0 20.0
a 49 6 0.0 85.0 21.0
a 49 18 0.0 59.0 42.0
a 49 32 0.0 69.0 28.0
a 49 7 0.0 55.0 27.0
a 49 19 0.0 134.0 62.0
a 49 9 0.0 94.0 1.0
a 49 27 0.0 60.0 29.0
a 49 13 0.0 67.0 34.0
a 49 23 0.0 121.0 17.0
a 49 29 0.0 90.0 51.0
a 49 8 0.0 151.0 21.0
a 49 38 0.0 135.0 14.0
a 49 50 0.0 130.0 36.0
a 49 21 0.0 110.0 9.0
a 49 11 0.0 101.0 8.0
a 49 34 0.0 118.0 36.0
a 49 42 0.0 143.0 35.0
a 49 14 0.0 87.0 15.0
a 49 10 0.0 134.0 39.0
a 49 37 0.0 83.0 3.0
a 49 28 0.0 105.0 25.0
a 49 51 0.0 92.0 26.0
a 49 36 0.0 69.0 57.0
a 49 41 0.0 98.0 54.0
a 49 25 0.0 67.0 34.0
a 49 20 0.0 125.0 59.0
a 49 16 0.0 70.0 60.0
a 2 16 0.0 72.0 59.0
a 2 37 0.0 127.0 18.0
a 7 51 0.0 72.0 14.0
a 7 19 0.0 65.0 9.0
a 7 42 0.0 68.0 2.0
a 14 45 0.0 72.0 52.0
a 14 50 0.0 63.0 42.0
a 14 47 0.0 92.0 12.0
a 14 24 0.0 125.0 37.0
a 14 49 0.0 135.0 49.0
a 14 6 0.0 104.0 24.0
a 14 46 0.0 91.0 48.0
a 14 28 0.0 106.0 54.0
a 14 21 0.0 60.0 23.0
a 14 37 0.0 150.0 18.0
a 14 34 0.0 94.0 28.0
a 14 13 0.0 98.0 25.0
a 14 27 0.0 65.0 54.0
a 14 26 0.0 100.0 15.0
a 14 52 0.0 74.0 39.0
a 14 17 0.0 147.0 21.0
a 14 42 0.0 97.0 25.0
a 14 10 0.0 105.0 60.0
a 14 29 0.0 124.0 38.0
a 14 8 0.0 135.0 17.0
a 14 48 0.0 55.0 6.0
a 14 39 0.0 64.0 48.0
a 14 5 0.0 118.0 28.0
a 14 23 0.0 136.0 40.0
a 14 43 0.0 94.0 42.0
a 14 30 0.0 58.0 3.0
a 14 12 0.0 131.0 56.0
a 14 36 0.0 61.0 13.0
a 14 16 0.0 90.0 49.0
a 14 35 0.0 112.0 48.0
a 14 7 0.0 132.0 43.0
a 14 15 0.0 142.0 38.0
a 14 18 0.0 118.0 10.0
a 14 32 0.0 64.0 49.0
a 14 33 0.0 104.0 32.0
a 14 20 0.0 117.0 62.0
a 14 25 0.0 73.0 17.0
a 14 19 0.0 145.0 54.0
a 14 31 0.0 93.0 53.0
a 14 40 0.0 150.0 54.0
a 16 52 0.0 72.0 14.0
a 16 22 0.0 72.0 36.0
a 16 23 0.0 78.0 10.0
a 16 32 0.0 71.0 54.0
a 20 44 0.0 72.0 10.0
a 20 32 0.0 83.0 28.0
a 22 38 0.0 72.0 32.0
a 22 46 0.0 88.0 25.0
a 22 8 0.0 85.0 36.0
a 22 29 0.0 71.0 5.0
a 22 48 0.0 142.0 31.0
a 22 28 0.0 121.0 51.0
a 22 31 0.0 78.0 25.0
a 22 26 0.0 145.0 6.0
a 22 49 0.0 93.0 61.0
a 22 51 0.0 82.0 6.0
a 22 44 0.0 137.0 24.0
a 22 39 0.0 76.0 42.0
a 22 5 0.0 128.0 52.0
a 22 10 0.0 111.0 19.0
a 22 16 0.0 74.0 58.0
a 22 24 0.0 67.0 55.0
a 22 9 0.0 99.0 34.0
a 22 25 0.0 149.0 23.0
a 22 50 0.0 107.0 50.0
a 22 23 0.0 61.0 41.0
a 22 34 0.0 150.0 5.0
a 22 43 0.0 107.0 33.0
a 22 15 0.0 60.0 53.0
a 22 35 0.0 148.0 10.0
a 22 17 0.0 108.0 49.0
a 22 40 0.0 83.0 36.0
a 22 41 0.0 117.0 60.0
a 22 30 0.0 56.0 7.0
a 22 7 0.0 149.0 52.0
a 22 52 0.0 146.0 52.0
a 22 18 0.0 76.0 9.0
a 22 32 0.0 143.0 2.0
a 35 7 0.0 72.0 60.0
a 35 39 0.0 137.0 7.0
a 35 46 0.0 108.0 60.0
a 35 45 0.0 130.0 12.0
a 38 14 0.0 72.0 2.0
a 38 43 0.0 89.0 56.0
a 38 23 0.0 95.0 38.0
a 38 6 0.0 69.0 11.0
a 38 50 0.0 87.0 36.0
a 38 17 0.0 146.0 23.0
a 38 35 0.0 75.0 45.0
a 38 12 0.0 143.0 37.0
a 38 13 0.0 110.0 59.0
a 38 34 0.0 110.0 27.0
a 38 37 0.0 81.0 14.0
a 38 36 0.0 134.0 28.0
a 38 18 0.0 54.0 46.0
a 38 15 0.0 82.0 17.0
a 38 27 0.0 143.0 43.0
a 38 45 0.0 110.0 60.0
a 38 5 0.0 107.0 54.0
a 38 28 0.0 134.0 41.0
a 38 48 0.0 144.0 9.0
a 38 8 0.0 95.0 18.0
a 38 39 0.0 78.0 23.0
a 38 29 0.0 73.0 39.0
a 38 46 0.0 68.0 39.0
a 38 21 0.0 104.0 52.0
a 44 35 0.0 72.0 2.0
a 44 32 0.0 98.0 56.0
a 44 15 0.0 99.0 33.0
a 44 51 0.0 127.0 57.0
a 45 20 0.0 72.0 19.0
a 45 14 0.0 86.0 57.0
a 45 12 0.0 122.0 20.0
a 45 22 0.0 86.0 32.0
a 45 49 0.0 142.0 46.0
a 45 18 0.0 70.0 1.0
a 45 30 0.0 128.0 38.0
a 45 24 0.0 140.0 28.0
a 45 31 0.0 58.0 52.0
a 45 43 0.0 103.0 31.0
a 45 47 0.0 87.0 20.0
a 45 39 0.0 150.0 4.0
a 45 15 0.0 137.0 31.0
a 45 44 0.0 97.0 31.0
a 45 16 0.0 96.0 45.0
a 45 32 0.0 109.0 31.0
a 45 42 0.0 145.0 48.0
a 45 23 0.0 122.0 56.0
a 45 9 0.0 127.0 43.0
a 45 52 0.0 59.0 15.0
a 45 6 0.0 133.0 57.0
a 45 38 0.0 89.0 10.0
a 45 26 0.0 134.0 9.0
a 45 36 0.0 142.0 38.0
a 45 48 0.0 68.0 50.0
a 45 35 0.0 100.0 31.0
a 45 17 0.0 64.0 4.0
a 45 41 0.0 85.0 32.0
a 45 8 0.0 117.0 57.0
a 45 34 0.0 106.0 8.0
a 45 21 0.0 139.0 11.0
a 45 25 0.0 114.0 56.0
a 3 25 0.0 54.0 13.0
a 3 14 0.0 142.0 56.0
a 3 19 0.0 57.0 39.0
a 3 18 0.0 58.0 31.0
a 3 37 0.0 126.0 39.0
a 3 33 0.0 130.0 7.0
a 3 5 0.0 146.0 16.0
a 3 27 0.0 95.0 43.0
a 3 13 0.0 98.0 34.0
a 3 49 0.0 131.0 17.0
a 3 6 0.0 101.0 19.0
a 3 16 0.0 130.0 49.0
a 3 46 0.0 102.0 38.0
a 3 12 0.0 123.0 12.0
a 3 48 0.0 118.0 24.0
a 3 45 0.0 100.0 62.0
a 3 24 0.0 151.0 60.0
a 3 9 0.0 74.0 18.0
a 3 35 0.0 114.0 29.0
a 3 10 0.0 87.0 60.0
a 3 47 0.0 104.0 52.0
a 3 43 0.0 125.0 16.0
a 3 21 0.0 97.0 56.0
a 3 51 0.0 103.0 11.0
a 3 31 0.0 112.0 16.0
a 3 30 0.0 57.0 2.0
a 3 38 0.0 91.0 35.0
a 3 8 0.0 93.0 31.0
a 3 42 0.0 124.0 62.0
a 3 11 0.0 75.0 62.0
a 3 7 0.0 148.0 43.0
a 3 40 0.0 144.0 48.0
a 9 23 0.0 54.0 36.0
a 9 5 0.0 56.0 7.0
a 9 49 0.0 113.0 41.0
a 9 39 0.0 127.0 55.0
a 9 37 0.0 65.0 19.0
a 9 19 0.0 127.0 40.0
a 9 7 0.0 141.0 51.0
a 9 15 0.0 132.0 9.0
a 9 12 0.0 139.0 4.0
a 9 13 0.0 140.0 62.0
a 9 22 0.0 58.0 62.0
a 9 33 0.0 150.0 61.0
a 9 48 0.0 135.0 43.0
a 9 16 0.0 127.0 43.0
a 9 47 0.0 83.0 8.0
a 9 41 0.0 130.0 57.0
a 9 6 0.0 147.0 34.0
a 9 27 0.0 62.0 30.0
a 9 38 0.0 70.0 48.0
a 9 46 0.0 88.0 52.0
a 9 34 0.0 118.0 14.0
a 9 51 0.0 132.0 1.0
a 9 10 0.0 94.0 2.0
a 9 52 0.0 132.0 28.0
a 9 24 0.0 111.0 54.0
a 9 18 0.0 65.0 31.0
a 9 26 0.0 131.0 32.0
a 9 28 0.0 124.0 19.0
a 9 44 0.0 77.0 18.0
a 9 21 0.0 63.0 29.0
a 9 20 0.0 58.0 28.0
a 9 32 0.0 123.0 40.0
a 9 40 0.0 145.0 27.0
a 9 42 0.0 138.0 54.0
a 9 45 0.0 68.0 53.0
a 11 13 0.0 54.0 16.0
a 11 33 0.0 71.0 34.0
a 11 21 0.0 64.0 23.0
a 11 46 0.0 63.0 27.0
a 11 10 0.0 54.0 60.0
a 11 52 0.0 142.0 7.0
a 11 29 0.0 68.0 42.0
a 11 24 0.0 136.0 46.0
a 11 28 0.0 88.0 52.0
a 11 26 0.0 85.0 34.0
a 11 41 0.0 148.0 61.0
a 11 8 0.0 102.0 19.0
a 11 19 0.0 69.0 31.0
a 11 42 0.0 92.0 36.0
a 11 40 0.0 90.0 60.0
a 11 25 0.0 67.0 28.0
a 11 51 0.0 80.0 62.0
a 11 39 0.0 60.0 8.0
a 11 48 0.0 133.0 58.0
a 11 23 0.0 140.0 6.0
a 11 37 0.0 89.0 49.0
a 11 14 0.0 107.0 62.0
a 11 31 0.0 144.0 26.0
a 11 47 0.0 117.0 28.0
a 11 16 0.0 55.0 13.0
a 13 28 0.0 54.0 56.0
a 13 22 0.0 97.0 34.0
a 13 26 0.0 136.0 9.0
a 13 20 0.0 116.0 4.0
a 13 15 0.0 140.0 19.0
a 13 49 0.0 78.0 20.0
a 13 45 0.0 71.0 43.0
a 13 30 0.0 70.0 22.0
a 13 21 0.0 100.0 46.0
a 13 29 0.0 149.0 36.0
a 13 31 0.0 121.0 56.0
a 13 7 0.0 65.0 54.0
a 13 27 0.0 86.0 10.0
a 13 19 0.0 140.0 8.0
a 13 18 0.0 143.0 41.0
a 13 48 0.0 96.0 55.0
a 13 32 0.0 117.0 37.0
a 13 25 0.0 118.0 2.0
a 23 48 0.0 54.0 12.0
a 23 9 0.0 72.0 5.0
a 23 51 0.0 113.0 59.0
a 23 25 0.0 74.0 19.0
a 23 8 0.0 151.0 5.0
a 23 13 0.0 125.0 28.0
a 23 43 0.0 83.0 59.0
a 23 46 0.0 151.0 60.0
a 23 17 0.0 144.0 7.0
a 23 20 0.0 55.0 30.0
a 23 12 0.0 94.0 26.0
a 23 26 0.0 61.0 21.0
a 23 40 0.0 105.0 14.0
a 23 41 0.0 108.0 29.0
a 23 14 0.0 110.0 60.0
a 23 29 0.0 103.0 60.0
a 23 33 0.0 81.0 27.0
a 23 50 0.0 143.0 24.0
a 23 31 0.0 115.0 60.0
a 23 16 0.0 144.0 52.0
a 23 30 0.0 82.0 56.0
a 23 49 0.0 129.0 54.0
a 23 28 0.0 150.0 13.0
a 23 47 0.0 67.0 44.0
a 23 21 0.0 96.0 5.0
a 23 18 0.0 88.0 24.0
a 23 36 0.0 84.0 40.0
a 23 52 0.0 75.0 27.0
a 24 41 0.0 54.0 61.0
a 24 20 0.0 143.0 43.0
a 24 22 0.0 145.0 32.0
a 24 30 0.0 95.0 47.0
a 24 38 0.0 75.0 54.0
a 24 15 0.0 74.0 36.0
a 24 48 0.0 55.0 4.0
a 24 19 0.0 77.0 27.0
a 24 26 0.0 144.0 8.0
a 24 37 0.0 63.0 21.0
a 24 9 0.0 76.0 38.0
a 24 32 0.0 101.0 7.0
a 24 11 0.0 67.0 40.0
a 24 49 0.0 106.0 42.0
a 24 47 0.0 108.0 16.0
a 24 18 0.0 70.0 27.0
a 24 35 0.0 140.0 22.0
a 24 7 0.0 81.0 4.0
a 24 21 0.0 149.0 47.0
a 24 43 0.0 66.0 51.0
a 24 44 0.0 114.0 19.0
a 24 25 0.0 135.0 48.0
a 24 40 0.0 98.0 60.0
a 24 17 0.0 77.0 61.0
a 24 36 0.0 95.0 39.0
a 24 6 0.0 102.0 20.0
a 24 33 0.0 82.0 21.0
a 24 23 0.0 135.0 37.0
a 24 31 0.0 109.0 2.0
a 24 34 0.0 106.0 44.0
a 24 27 0.0 92.0 37.0
a 24 5 0.0 147.0 33.0
a 24 28 0.0 79.0 14.0
a 24 42 0.0 134.0 54.0
a 24 12 0.0 127.0 58.0
a 24 52 0.0 151.0 19.0
a 24 14 0.0 151.0 28.0
a 24 51 0.0 111.0 45.0
a 24 13 0.0 140.0 22.0
a 25 11 0.0 54.0 53.0
a 25 22 0.0 86.0 54.0
a 25 45 0.0 67.0 47.0
a 25 9 0.0 57.0 2.0
a 25 48 0.0 124.0 42.0
a 25 15 0.0 142.0 23.0
a 25 38 0.0 100.0 26.0
a 25 17 0.0 147.0 25.0
a 25 46 0.0 138.0 25.0
a 25 16 0.0 77.0 50.0
a 25 32 0.0 105.0 15.0
a 26 46 0.0 54.0 44.0
a 26 31 0.0 148.0 45.0
a 26 16 0.0 109.0 14.0
a 26 21 0.0 141.0 43.0
a 26 45 0.0 58.0 20.0
a 26 37 0.0 87.0 35.0
a 26 36 0.0 134.0 33.0
a 26 42 0.0 141.0 42.0
a 26 51 0.0 120.0 41.0
a 26 41 0.0 67.0 53.0
a 26 22 0.0 104.0 18.0
a 26 15 0.0 113.0 43.0
a 26 35 0.0 120.0 42.0
a 26 39 0.0 74.0 44.0
a 26 50 0.0 79.0 23.0
a 26 43 0.0 128.0 3.0
a 26 24 0.0 86.0 53.0
a 26 23 0.0 73.0 22.0
a 26 40 0.0 97.0 35.0
a 26 17 0.0 147.0 11.0
a 26 34 0.0 142.0 20.0
a 26 44 0.0 130.0 25.0
a 26 6 0.0 109.0 56.0
a 26 7 0.0 93.0 4.0
a 26 19 0.0 132.0 54.0
a 26 52 0.0 106.0 20.0
a 26 48 0.0 107.0 9.0
a 26 9 0.0 91.0 33.0
a 26 28 0.0 134.0 21.0
a 26 12 0.0 151.0 26.0
a 26 5 0.0 71.0 17.0
a 26 32 0.0 133.0 4.0
a 26 20 0.0 134.0 59.0
a 26 25 0.0 74.0 30.0
a 26 33 0.0 117.0 6.0
a 26 14 0.0 133.0 62.0
a 26 13 0.0 82.0 22.0
a 26 29 0.0 128.0 46.0
a 26 47 0.0 72.0 41.0
a 26 30 0.0 58.0 8.0
a 28 9 0.0 54.0 39.0
a 28 51 0.0 144.0 21.0
a 28 46 0.0 144.0 8.0
a 28 25 0.0 58.0 22.0
a 28 6 0.0 73.0 43.0
a 28 30 0.0 142.0 29.0
a 28 35 0.0 97.0 35.0
a 28 20 0.0 143.0 34.0
a 28 17 0.0 102.0 43.0
a 28 52 0.0 76.0 32.0
a 28 7 0.0 90.0 56.0
a 28 16 0.0 107.0 51.0
a 28 45 0.0 85.0 27.0
a 28 10 0.0 68.0 28.0
a 28 48 0.0 84.0 51.0
a 28 19 0.0 112.0 60.0
a 28 43 0.0 147.0 49.0
a 28 15 0.0 99.0 1.0
a 28 31 0.0 118.0 44.0
a 28 39 0.0 135.0 41.0
a 28 36 0.0 84.0 59.0
a 28 34 0.0 128.0 34.0
a 28 26 0.0 88.0 56.0
a 28 18 0.0 97.0 33.0
a 28 44 0.0 138.0 50.0
a 28 24 0.0 105.0 36.0
a 28 5 0.0 98.0 6.0
a 28 33 0.0 84.0 42.0
a 28 21 0.0 70.0 13.0
a 28 29 0.0 63.0 25.0
a 28 8 0.0 95.0 1.0
a 28 13 0.0 80.0 36.0
a 28 49 0.0 85.0 28.0
a 28 14 0.0 66.0 24.0
a 28 27 0.0 77.0 5.0
a 41 50 0.0 54.0 2.0
a 41 37 0.0 135.0 4.0
a 41 43 0.0 104.0 2.0
a 41 8 0.0 102.0 13.0
a 41 28 0.0 103.0 4.0
a 41 19 0.0 136.0 6.0
a 41 38 0.0 61.0 55.0
a 41 18 0.0 145.0 49.0
a 41 15 0.0 85.0 35.0
a 41 17 0.0 145.0 13.0
a 41 36 0.0 69.0 34.0
a 41 30 0.0 71.0 18.0
a 41 26 0.0 111.0 34.0
a 41 12 0.0 61.0 18.0
a 41 48 0.0 133.0 8.0
a 41 44 0.0 72.0 26.0
a 41 10 0.0 73.0 33.0
a 41 46 0.0 107.0 16.0
a 41 29 0.0 85.0 20.0
a 41 39 0.0 118.0 21.0
a 41 35 0.0 59.0 37.0
a 41 47 0.0 119.0 60.0
a 41 31 0.0 54.0 10.0
a 41 13 0.0 103.0 61.0
a 41 52 0.0 89.0 58.0
a 41 34 0.0 96.0 15.0
a 41 49 0.0 77.0 20.0
a 41 25 0.0 82.0 5.0
a 41 27 0.0 129.0 42.0
a 41 24 0.0 110.0 5.0
a 41 7 0.0 91.0 29.0
a 41 9 0.0 92.0 15.0
a 41 11 0.0 134.0 25.0
a 41 42 0.0 106.0 1.0
a 41 45 0.0 69.0 44.0
a 41 22 0.0 55.0 42.0
a 41 16 0.0 135.0 24.0
a 41 20 0.0 125.0 51.0
a 41 5 0.0 102.0 36.0
a 41 23 0.0 64.0 62.0
a 41 14 0.0 82.0 33.0
a 43 24 0.0 54.0 31.0
a 43 38 0.0 110.0 12.0
a 43 15 0.0 145.0 13.0
a 43 27 0.0 108.0 25.0
a 43 29 0.0 88.0 41.0
a 43 32 0.0 65.0 23.0
a 43 47 0.0 100.0 6.0
a 43 23 0.0 106.0 13.0
a 43 11 0.0 65.0 15.0
a 43 10 0.0 82.0 36.0
a 43 35 0.0 127.0 44.0
a 43 37 0.0 65.0 46.0
a 43 46 0.0 123.0 43.0
a 43 51 0.0 136.0 47.0
a 43 25 0.0 75.0 36.0
a 43 26 0.0 100.0 36.0
a 43 7 0.0 55.0 27.0
a 43 20 0.0 143.0 55.0
a 43 33 0.0 146.0 28.0
a 43 6 0.0 57.0 30.0
a 43 13 0.0 147.0 18.0
a 43 5 0.0 136.0 8.0
a 43 42 0.0 125.0 59.0
a 43 16 0.0 74.0 62.0
a 43 41 0.0 120.0 50.0
a 43 45 0.0 136.0 9.0
a 43 12 0.0 61.0 35.0
a 43 49 0.0 102.0 46.0
a 43 31 0.0 151.0 14.0
a 46 43 0.0 54.0 43.0
a 46 15 0.0 110.0 39.0
a 46 8 0.0 100.0 14.0
a 46 37 0.0 74.0 4.0
a 47 26 0.0 54.0 28.0
a 47 52 0.0 54.0 61.0
a 47 10 0.0 143.0 43.0
a 47 31 0.0 90.0 15.0
a 47 42 0.0 63.0 51.0
a 47 22 0.0 89.0 18.0
a 47 23 0.0 137.0 47.0
a 47 48 0.0 116.0 44.0
a 47 44 0.0 116.0 35.0
a 47 33 0.0 123.0 60.0
a 47 8 0.0 84.0 54.0
a 47 40 0.0 148.0 58.0
a 47 34 0.0 139.0 29.0
a 47 9 0.0 136.0 40.0
a 47 28 0.0 57.0 62.0
a 47 37 0.0 98.0 8.0
a 47 12 0.0 69.0 55.0
a 47 13 0.0 68.0 34.0
a 47 7 0.0 74.0 38.0
a 47 25 0.0 149.0 9.0
a 47 16 0.0 100.0 56.0
a 48 47 0.0 54.0 6.0
a 48 28 0.0 107.0 53.0
a 48 34 0.0 65.0 2.0
a 48 30 0.0 145.0 29.0
a 48 32 0.0 123.0 16.0
a 48 42 0.0 129.0 55.0
a 4 18 0.0 289.0 8.0
a 4 31 0.0 111.0 57.0
a 4 36 0.0 68.0 9.0
a 4 49 0.0 99.0 2.0
a 4 6 0.0 115.0 4.0
a 4 32 0.0 56.0 2.0
a 4 48 0.0 106.0 40.0
a 5 15 0.0 289.0 50.0
a 5 47 0.0 72.0 48.0
a 5 12 0.0 57.0 18.0
a 5 24 0.0 88.0 16.0
a 5 17 0.0 125.0 55.0
a 5 14 0.0 119.0 6.0
a 5 37 0.0 55.0 41.0
a 5 26 0.0 138.0 60.0
a 5 33 0.0 76.0 61.0
a 5 6 0.0 63.0 61.0
a 5 18 0.0 122.0 20.0
a 5 19 0.0 99.0 62.0
a 5 42 0.0 91.0 35.0
a 10 37 0.0 289.0 58.0
a 10 7 0.0 70.0 47.0
a 10 28 0.0 135.0 46.0
a 10 50 0.0 111.0 7.0
a 10 8 0.0 105.0 14.0
a 10 11 0.0 58.0 18.0
a 10 49 0.0 75.0 5.0
a 10 29 0.0 139.0 12.0
a 10 6 0.0 108.0 1.0
a 10 47 0.0 100.0 37.0
a 10 40 0.0 61.0 61.0
a 10 26 0.0 139.0 2.0
a 10 52 0.0 78.0 17.0
a 10 19 0.0 138.0 55.0
a 10 16 0.0 139.0 9.0
a 15 36 0.0 289.0 23.0
a 15 40 0.0 134.0 62.0
a 15 8 0.0 70.0 60.0
a 17 21 0.0 289.0 62.0
a 17 50 0.0 289.0 40.0
a 17 15 0.0 149.0 33.0
a 17 23 0.0 99.0 58.0
a 17 43 0.0 150.0 31.0
a 17 11 0.0 109.0 60.0
a 17 31 0.0 96.0 59.0
a 17 13 0.0 128.0 47.0
a 17 25 0.0 122.0 5.0
a 17 41 0.0 113.0 45.0
a 17 26 0.0 147.0 59.0
a 17 46 0.0 60.0 10.0
a 17 29 0.0 74.0 10.0
a 17 24 0.0 100.0 48.0
a 17 10 0.0 124.0 51.0
a 17 20 0.0 125.0 53.0
a 17 51 0.0 119.0 44.0
a 17 16 0.0 85.0 5.0
a 17 14 0.0 97.0 39.0
a 17 5 0.0 151.0 38.0
a 17 47 0.0 135.0 33.0
a 17 42 0.0 150.0 49.0
a 17 40 0.0 119.0 9.0
a 18 17 0.0 289.0 2.0
a 18 32 0.0 133.0 48.0
a 18 30 0.0 88.0 45.0
a 18 22 0.0 107.0 24.0
a 18 21 0.0 104.0 36.0
a 18 41 0.0 72.0 53.0
a 18 36 0.0 106.0 49.0
a 18 9 0.0 90.0 39.0
a 18 8 0.0 89.0 32.0
a 18 16 0.0 105.0 24.0
a 18 47 0.0 70.0 29.0
a 18 24 0.0 121.0 14.0
a 18 10 0.0 56.0 20.0
a 18 14 0.0 111.0 15.0
a 18 15 0.0 135.0 22.0
a 18 34 0.0 127.0 31.0
a 18 40 0.0 120.0 35.0
a 18 37 0.0 144.0 39.0
a 18 39 0.0 72.0 14.0
a 18 23 0.0 82.0 23.0
a 18 20 0.0 117.0 39.0
a 18 46 0.0 102.0 1.0
a 18 51 0.0 63.0 22.0
a 18 28 0.0 86.0 13.0
a 18 11 0.0 137.0 5.0
a 18 49 0.0 112.0 59.0
a 18 42 0.0 147.0 29.0
a 18 27 0.0 144.0 59.0
a 18 12 0.0 134.0 58.0
a 18 13 0.0 89.0 41.0
a 18 19 0.0 73.0 12.0
a 18 48 0.0 96.0 21.0
a 18 50 0.0 151.0 49.0
a 18 5 0.0 121.0 6.0
a 18 35 0.0 79.0 4.0
a 18 25 0.0 124.0 34.0
a 18 26 0.0 124.0 1.0
a 18 6 0.0 81.0 56.0
a 18 44 0.0 128.0 9.0
a 18 43 0.0 86.0 30.0
a 18 33 0.0 133.0 27.0
a 18 31 0.0 151.0 15.0
a 18 45 0.0 93.0 14.0
a 18 7 0.0 109.0 37.0
a 18 29 0.0 146.0 8.0
a 18 38 0.0 68.0 9.0
a 18 52 0.0 56.0 27.0
a 19 40 0.0 289.0 24.0
a 19 12 0.0 146.0 15.0
a 19 43 0.0 63.0 6.0
a 19 17 0.0 94.0 3.0
a 19 8 0.0 97.0 26.0
a 19 37 0.0 69.0 21.0
a 19 20 0.0 115.0 60.0
a 19 33 0.0 81.0 16.0
a 19 18 0.0 54.0 38.0
a 19 30 0.0 87.0 28.0
a 19 32 0.0 87.0 57.0
a 19 23 0.0 144.0 45.0
a 19 14 0.0 73.0 4.0
a 21 10 0.0 289.0 11.0
a 21 13 0.0 66.0 41.0
a 21 11 0.0 60.0 24.0
a 21 15 0.0 80.0 39.0
a 27 51 0.0 289.0 61.0
a 27 33 0.0 136.0 29.0
a 27 7 0.0 132.0 16.0
a 27 10 0.0 94.0 19.0
a 27 12 0.0 112.0 3.0
a 27 38 0.0 95.0 62.0
a 27 20 0.0 139.0 47.0
a 27 32 0.0 124.0 18.0
a 27 49 0.0 91.0 21.0
a 27 30 0.0 79.0 39.0
a 27 47 0.0 144.0 48.0
a 27 9 0.0 80.0 27.0
a 27 26 0.0 74.0 47.0
a 27 42 0.0 113.0 23.0
a 27 37 0.0 59.0 53.0
a 27 15 0.0 112.0 49.0
a 27 23 0.0 136.0 37.0
a 27 25 0.0 74.0 2.0
a 27 29 0.0 124.0 25.0
a 27 48 0.0 121.0 18.0
a 27 11 0.0 138.0 8.0
a 27 39 0.0 95.0 35.0
a 27 36 0.0 64.0 36.0
a 27 35 0.0 141.0 50.0
a 27 34 0.0 116.0 19.0
a 27 28 0.0 100.0 60.0
a 27 21 0.0 122.0 22.0
a 27 18 0.0 74.0 32.0
a 27 17 0.0 150.0 59.0
a 27 24 0.0 142.0 33.0
a 27 31 0.0 105.0 18.0
a 27 19 0.0 83.0 26.0
a 27 13 0.0 142.0 11.0
a 27 41 0.0 131.0 20.0
a 27 52 0.0 135.0 57.0
a 30 42 0.0 289.0 25.0
a 30 6 0.0 80.0 51.0
a 30 14 0.0 114.0 35.0
a 30 34 0.0 94.0 15.0
a 30 27 0.0 103.0 11.0
a 30 28 0.0 71.0 41.0
a 30 44 0.0 124.0 42.0
a 30 7 0.0 59.0 37.0
a 30 5 0.0 72.0 57.0
a 30 25 0.0 121.0 48.0
a 30 32 0.0 92.0 31.0
a 30 11 0.0 93.0 59.0
a 30 22 0.0 81.0 20.0
a 30 38 0.0 57.0 55.0
a 30 21 0.0 94.0 38.0
a 30 20 0.0 143.0 18.0
a 34 19 0.0 289.0 51.0
a 34 52 0.0 55.0 32.0
a 34 14 0.0 142.0 19.0
a 34 47 0.0 136.0 51.0
a 34 6 0.0 63.0 28.0
a 34 27 0.0 54.0 2.0
a 34 33 0.0 117.0 3.0
a 34 38 0.0 92.0 25.0
a 34 23 0.0 74.0 29.0
a 34 29 0.0 86.0 30.0
a 34 36 0.0 126.0 6.0
a 34 41 0.0 81.0 18.0
a 34 26 0.0 83.0 40.0
a 34 50 0.0 56.0 32.0
a 36 27 0.0 289.0 35.0
a 36 48 0.0 54.0 55.0
a 36 14 0.0 144.0 34.0
a 36 5 0.0 62.0 48.0
a 36 29 0.0 94.0 53.0
a 36 24 0.0 151.0 48.0
a 36 31 0.0 97.0 4.0
a 36 25 0.0 150.0 58.0
a 36 43 0.0 108.0 35.0
a 36 49 0.0 103.0 43.0
a 36 16 0.0 82.0 4.0
a 36 33 0.0 71.0 42.0
a 36 23 0.0 58.0 9.0
a 36 7 0.0 59.0 42.0
a 36 44 0.0 81.0 51.0
a 36 52 0.0 104.0 7.0
a 37 30 0.0 289.0 5.0
a 37 8 0.0 64.0 6.0
a 37 52 0.0 97.0 4.0
a 37 33 0.0 66.0 27.0
a 37 19 0.0 82.0 43.0
a 37 38 0.0 63.0 62.0
a 37 36 0.0 146.0 16.0
a 37 14 0.0 104.0 35.0
a 37 44 0.0 72.0 34.0
a 37 29 0.0 80.0 51.0
a 37 6 0.0 139.0 10.0
a 37 24 0.0 111.0 29.0
a 37 13 0.0 98.0 41.0
a 37 31 0.0 72.0 48.0
a 37 11 0.0 95.0 60.0
a 37 43 0.0 58.0 56.0
a 37 5 0.0 88.0 55.0
a 37 17 0.0 98.0 12.0
a 37 16 0.0 149.0 25.0
a 37 10 0.0 89.0 10.0
a 37 50 0.0 91.0 35.0
a 37 41 0.0 82.0 34.0
a 37 34 0.0 132.0 15.0
a 37 25 0.0 141.0 11.0
a 37 20 0.0 89.0 16.0
a 37 48 0.0 69.0 46.0
a 37 7 0.0 93.0 31.0
a 37 26 0.0 74.0 15.0
a 37 40 0.0 75.0 9.0
a 37 23 0.0 87.0 43.0
a 37 28 0.0 62.0 18.0
a 37 42 0.0 121.0 58.0
a 37 35 0.0 99.0 49.0
a 37 12 0.0 111.0 33.0
a 37 47 0.0 65.0 61.0
a 37 27 0.0 123.0 2.0
a 37 22 0.0 143.0 11.0
a 37 46 0.0 89.0 47.0
a 37 21 0.0 122.0 2.0
a 37 45 0.0 87.0 35.0
a 37 39 0.0 112.0 6.0
a 37 32 0.0 54.0 38.0
a 37 9 0.0 76.0 16.0
a 37 15 0.0 147.0 5.0
a 37 51 0.0 118.0 43.0
a 37 49 0.0 107.0 38.0
a 37 18 0.0 135.0 3.0
a 40 5 0.0 289.0 46.0
a 40 24 0.0 66.0 13.0
a 40 33 0.0 66.0 21.0
a 40 9 0.0 54.0 53.0
a 40 23 0.0 78.0 59.0
a 40 49 0.0 146.0 62.0
a 40 39 0.0 100.0 60.0
a 40 28 0.0 124.0 58.0
a 40 44 0.0 105.0 2.0
a 40 10 0.0 102.0 18.0
a 40 43 0.0 112.0 26.0
a 40 14 0.0 132.0 39.0
a 40 16 0.0 86.0 7.0
a 40 8 0.0 60.0 3.0
a 40 6 0.0 95.0 30.0
a 40 21 0.0 129.0 15.0
a 40 22 0.0 142.0 31.0
a 40 51 0.0 103.0 3.0
a 40 15 0.0 81.0 11.0
a 40 35 0.0 60.0 4.0
a 40 13 0.0 95.0 6.0
a 40 52 0.0 139.0 7.0
a 40 29 0.0 141.0 39.0
a 40 48 0.0 65.0 13.0
a 40 18 0.0 106.0 6.0
a 40 34 0.0 150.0 51.0
a 40 7 0.0 146.0 21.0
a 40 17 0.0 90.0 7.0
a 40 46 0.0 95.0 41.0
a 40 36 0.0 110.0 62.0
a 40 38 0.0 89.0 53.0
a 40 25 0.0 89.0 13.0
a 40 32 0.0 137.0 56.0
a 40 31 0.0 145.0 48.0
a 40 42 0.0 146.0 48.0
a 40 27 0.0 120.0 30.0
a 40 45 0.0 61.0 37.0
a 40 11 0.0 71.0 6.0
a 40 26 0.0 62.0 62.0
a 40 30 0.0 124.0 13.0
a 40 37 0.0 135.0 11.0
a 40 41 0.0 79.0 58.0
a 40 12 0.0 62.0 4.0
a 40 19 0.0 113.0 60.0
a 40 50 0.0 121.0 61.0
a 40 47 0.0 69.0 6.0
a 40 20 0.0 97.0 29.0
a 42 34 0.0 289.0 14.0
a 42 10 0.0 60.0 56.0
a 42 29 0.0 95.0 35.0
a 42 6 0.0 66.0 46.0
a 42 24 0.0 54.0 41.0
a 42 15 0.0 112.0 49.0
a 42 49 0.0 93.0 56.0
a 42 23 0.0 75.0 8.0
a 42 7 0.0 113.0 7.0
a 42 36 0.0 109.0 32.0
a 42 37 0.0 145.0 48.0
a 42 25 0.0 100.0 18.0
a 42 35 0.0 139.0 37.0
a 42 51 0.0 134.0 25.0
a 42 52 0.0 127.0 30.0
a 42 27 0.0 142.0 19.0
a 42 39 0.0 93.0 33.0
a 42 11 0.0 133.0 4.0
a 42 32 0.0 105.0 9.0
a 42 18 0.0 57.0 28.0
a 42 8 0.0 129.0 35.0
